Traveling Salesman Problem/TSP_generados/Aleatorio1621103717_17.tsp
NAME: Aleatorio1621103717_17.tsp
COMMENT: Randomly generated scenario
TYPE: TSP
DIMENSION: 17
EDGE_WEIGHT_TYPE: ATT
NODE_COORD_SECTION
1 14.13 12.13
2 40.91 42.49
3 17.41 36.62
4 6.16 17.44
5 15.89 32.17
6 15.55 9.57
7 6.67 31.95
8 12.04 29.38
9 45.23 29.48
10 34.31 25.26
11 43.87 2.95
12 27.48 48.91
13 44.41 39.87
14 38.07 45.56
15 40.91 40.24
16 8.46 2.03
17 21.91 23.3
