Traveling Salesman Problem/TSP_generados/Aleatorio1621103717_17.opt.tour
NAME: Aleatorio1621103717_17.opt.tour
COMMENT: Optimal solution for Aleatorio1621103717_17 (183.16037770538648)
TYPE: TOUR
DIMENSION: 17
TOUR_SECTION
1 6 16 4 7 8 5 3 12 14 2 15 13 9 11 10 17
-1
EOF
